100
30
23
9
4
1
29
15
25
32
27
31
9
13
12
1
7
13
14
9
5
10
11
8
28
1
29
30
6
12
16
9
12
28
30
16
1
30
13
8
8
27
6
7
10
29
17
6
9
30
21
27
1
12
23
28
22
21
15
29
25
5
17
24
16
10
26
8
26
25
28
8
31
1
6
18
31
18
9
6
19
25
24
15
29
17
2
30
13
18
6
28
18
27
27
8
8
4
11
17
29
32